data/lp_files/pEFS/59_1.lp
\ Model foo
\ LP format - for model browsing. Use MPS format to capture full model detail.
Minimize
  z
Subject To
 allocateEach[1]: x[1,1] + x[2,1] + x[3,1] = 1
 allocateEach[2]: x[1,2] + x[2,2] + x[3,2] = 1
 allocateEach[3]: x[1,3] + x[2,3] + x[3,3] = 1
 allocateEach[4]: x[1,4] + x[2,4] + x[3,4] = 1
 allocateEach[5]: x[1,5] + x[2,5] + x[3,5] = 1
 allocateEach[6]: x[1,6] + x[2,6] + x[3,6] = 1
 allocateEach[7]: x[1,7] + x[2,7] + x[3,7] = 1
 allocateEach[8]: x[1,8] + x[2,8] + x[3,8] = 1
 allocateEach[9]: x[1,9] + x[2,9] + x[3,9] = 1
 allocateEach[10]: x[1,10] + x[2,10] + x[3,10] = 1
 allocateEach[11]: x[1,11] + x[2,11] + x[3,11] = 1
 allocateEach[12]: x[1,12] + x[2,12] + x[3,12] = 1
 allocateEach[13]: x[1,13] + x[2,13] + x[3,13] = 1
 allocateEach[14]: x[1,14] + x[2,14] + x[3,14] = 1
 allocateEach[15]: x[1,15] + x[2,15] + x[3,15] = 1
 allocateEach[16]: x[1,16] + x[2,16] + x[3,16] = 1
 allocateEach[17]: x[1,17] + x[2,17] + x[3,17] = 1
 allocateEach[18]: x[1,18] + x[2,18] + x[3,18] = 1
 allocateEach[19]: x[1,19] + x[2,19] + x[3,19] = 1
 allocateAllCash: cashProportion[1] + cashProportion[2] + cashProportion[3]
   = 1
 findWorstP[1,2]: z + 0.00943645491261843 cashProportion[1]
   - 0.00943645491261843 cashProportion[2] + 0.0888347865473899 x[1,1]
   + 0.0917695240252142 x[1,2] + 0.0237704299248858 x[1,3]
   + 0.0618276525874759 x[1,4] + 0.0167591439248103 x[1,5]
   + 0.0857962480655267 x[1,6] + 0.0678386743668139 x[1,7]
   + 0.0751991091986563 x[1,8] + 0.00156645151549466 x[1,9]
   + 0.0743120824368701 x[1,10] + 0.00461442645227041 x[1,11]
   + 0.0847865473898766 x[1,12] + 1.9816555316498697e-04 x[1,13]
   + 0.0322915487109803 x[1,14] + 0.0617615974030876 x[1,15]
   + 0.028564149020496 x[1,16] + 0.0249594232438757 x[1,17]
   + 0.0890518250103801 x[1,18] + 0.0766617597101121 x[1,19]
   - 0.0888347865473899 x[2,1] - 0.0917695240252142 x[2,2]
   - 0.0237704299248858 x[2,3] - 0.0618276525874759 x[2,4]
   - 0.0167591439248103 x[2,5] - 0.0857962480655267 x[2,6]
   - 0.0678386743668139 x[2,7] - 0.0751991091986563 x[2,8]
   - 0.00156645151549466 x[2,9] - 0.0743120824368701 x[2,10]
   - 0.00461442645227041 x[2,11] - 0.0847865473898766 x[2,12]
   - 1.9816555316498697e-04 x[2,13] - 0.0322915487109803 x[2,14]
   - 0.0617615974030876 x[2,15] - 0.028564149020496 x[2,16]
   - 0.0249594232438757 x[2,17] - 0.0890518250103801 x[2,18]
   - 0.0766617597101121 x[2,19] >= 0
 findWorstP[1,3]: z + 0.00943645491261843 cashProportion[1]
   - 0.00943645491261843 cashProportion[3] + 0.0888347865473899 x[1,1]
   + 0.0917695240252142 x[1,2] + 0.0237704299248858 x[1,3]
   + 0.0618276525874759 x[1,4] + 0.0167591439248103 x[1,5]
   + 0.0857962480655267 x[1,6] + 0.0678386743668139 x[1,7]
   + 0.0751991091986563 x[1,8] + 0.00156645151549466 x[1,9]
   + 0.0743120824368701 x[1,10] + 0.00461442645227041 x[1,11]
   + 0.0847865473898766 x[1,12] + 1.9816555316498697e-04 x[1,13]
   + 0.0322915487109803 x[1,14] + 0.0617615974030876 x[1,15]
   + 0.028564149020496 x[1,16] + 0.0249594232438757 x[1,17]
   + 0.0890518250103801 x[1,18] + 0.0766617597101121 x[1,19]
   - 0.0888347865473899 x[3,1] - 0.0917695240252142 x[3,2]
   - 0.0237704299248858 x[3,3] - 0.0618276525874759 x[3,4]
   - 0.0167591439248103 x[3,5] - 0.0857962480655267 x[3,6]
   - 0.0678386743668139 x[3,7] - 0.0751991091986563 x[3,8]
   - 0.00156645151549466 x[3,9] - 0.0743120824368701 x[3,10]
   - 0.00461442645227041 x[3,11] - 0.0847865473898766 x[3,12]
   - 1.9816555316498697e-04 x[3,13] - 0.0322915487109803 x[3,14]
   - 0.0617615974030876 x[3,15] - 0.028564149020496 x[3,16]
   - 0.0249594232438757 x[3,17] - 0.0890518250103801 x[3,18]
   - 0.0766617597101121 x[3,19] >= 0
 findWorstP[2,1]: z - 0.0138777096228039 cashProportion[1]
   + 0.0138777096228039 cashProportion[2] - 0.00653640123234062 x[1,1]
   - 0.00402453579061312 x[1,2] - 0.1120625052041411 x[1,3]
   - 0.1297149518443476 x[1,4] - 0.0504038413500236 x[1,5]
   - 0.0661827971911516 x[1,6] - 0.0867773182713925 x[1,7]
   - 0.019317771794943 x[1,8] - 0.1025423964028977 x[1,9]
   - 0.0138915873324267 x[1,10] - 0.0315995448111244 x[1,11]
   - 0.00840989203141914 x[1,12] - 0.024341502678398 x[1,13]
   - 0.090635321546532 x[1,14] - 0.0493907685475589 x[1,15]
   - 0.0190540953121097 x[1,16] - 0.0590496544450304 x[1,17]
   - 0.0861944544672347 x[1,18] - 0.0259929501235116 x[1,19]
   + 0.00653640123234062 x[2,1] + 0.00402453579061312 x[2,2]
   + 0.1120625052041411 x[2,3] + 0.1297149518443476 x[2,4]
   + 0.0504038413500236 x[2,5] + 0.0661827971911516 x[2,6]
   + 0.0867773182713925 x[2,7] + 0.019317771794943 x[2,8]
   + 0.1025423964028977 x[2,9] + 0.0138915873324267 x[2,10]
   + 0.0315995448111244 x[2,11] + 0.00840989203141914 x[2,12]
   + 0.024341502678398 x[2,13] + 0.090635321546532 x[2,14]
   + 0.0493907685475589 x[2,15] + 0.0190540953121097 x[2,16]
   + 0.0590496544450304 x[2,17] + 0.0861944544672347 x[2,18]
   + 0.0259929501235116 x[2,19] >= 0
 findWorstP[2,3]: z + 0.0138777096228039 cashProportion[2]
   - 0.0138777096228039 cashProportion[3] + 0.00653640123234062 x[2,1]
   + 0.00402453579061312 x[2,2] + 0.1120625052041411 x[2,3]
   + 0.1297149518443476 x[2,4] + 0.0504038413500236 x[2,5]
   + 0.0661827971911516 x[2,6] + 0.0867773182713925 x[2,7]
   + 0.019317771794943 x[2,8] + 0.1025423964028977 x[2,9]
   + 0.0138915873324267 x[2,10] + 0.0315995448111244 x[2,11]
   + 0.00840989203141914 x[2,12] + 0.024341502678398 x[2,13]
   + 0.090635321546532 x[2,14] + 0.0493907685475589 x[2,15]
   + 0.0190540953121097 x[2,16] + 0.0590496544450304 x[2,17]
   + 0.0861944544672347 x[2,18] + 0.0259929501235116 x[2,19]
   - 0.00653640123234062 x[3,1] - 0.00402453579061312 x[3,2]
   - 0.1120625052041411 x[3,3] - 0.1297149518443476 x[3,4]
   - 0.0504038413500236 x[3,5] - 0.0661827971911516 x[3,6]
   - 0.0867773182713925 x[3,7] - 0.019317771794943 x[3,8]
   - 0.1025423964028977 x[3,9] - 0.0138915873324267 x[3,10]
   - 0.0315995448111244 x[3,11] - 0.00840989203141914 x[3,12]
   - 0.024341502678398 x[3,13] - 0.090635321546532 x[3,14]
   - 0.0493907685475589 x[3,15] - 0.0190540953121097 x[3,16]
   - 0.0590496544450304 x[3,17] - 0.0861944544672347 x[3,18]
   - 0.0259929501235116 x[3,19] >= 0
 findWorstP[3,1]: z - 0.00748486186687425 cashProportion[1]
   + 0.00748486186687425 cashProportion[3] - 0.030358599732042 x[1,1]
   - 0.020950128365381 x[1,2] - 0.00487264507533514 x[1,3]
   - 0.0603279866470064 x[1,4] - 0.0531125798073397 x[1,5]
   - 0.061428261341437 x[1,6] - 0.0490408149517601 x[1,7]
   - 0.0563385552719625 x[1,8] - 0.06201956542892 x[1,9]
   - 0.0400664655733779 x[1,10] - 0.0431876529718644 x[1,11]
   - 0.0658592995666265 x[1,12] - 0.0714430065193147 x[1,13]
   - 0.0699684887315405 x[1,14] - 0.0714430065193147 x[1,15]
   - 0.0712184606633085 x[1,16] - 0.0412191343008765 x[1,17]
   - 0.069459518124593 x[1,18] - 0.0502009685411256 x[1,19]
   + 0.030358599732042 x[3,1] + 0.020950128365381 x[3,2]
   + 0.00487264507533514 x[3,3] + 0.0603279866470064 x[3,4]
   + 0.0531125798073397 x[3,5] + 0.061428261341437 x[3,6]
   + 0.0490408149517601 x[3,7] + 0.0563385552719625 x[3,8]
   + 0.06201956542892 x[3,9] + 0.0400664655733779 x[3,10]
   + 0.0431876529718644 x[3,11] + 0.0658592995666265 x[3,12]
   + 0.0714430065193147 x[3,13] + 0.0699684887315405 x[3,14]
   + 0.0714430065193147 x[3,15] + 0.0712184606633085 x[3,16]
   + 0.0412191343008765 x[3,17] + 0.069459518124593 x[3,18]
   + 0.0502009685411256 x[3,19] >= 0
 findWorstP[3,2]: z - 0.00748486186687425 cashProportion[2]
   + 0.00748486186687425 cashProportion[3] - 0.030358599732042 x[2,1]
   - 0.020950128365381 x[2,2] - 0.00487264507533514 x[2,3]
   - 0.0603279866470064 x[2,4] - 0.0531125798073397 x[2,5]
   - 0.061428261341437 x[2,6] - 0.0490408149517601 x[2,7]
   - 0.0563385552719625 x[2,8] - 0.06201956542892 x[2,9]
   - 0.0400664655733779 x[2,10] - 0.0431876529718644 x[2,11]
   - 0.0658592995666265 x[2,12] - 0.0714430065193147 x[2,13]
   - 0.0699684887315405 x[2,14] - 0.0714430065193147 x[2,15]
   - 0.0712184606633085 x[2,16] - 0.0412191343008765 x[2,17]
   - 0.069459518124593 x[2,18] - 0.0502009685411256 x[2,19]
   + 0.030358599732042 x[3,1] + 0.020950128365381 x[3,2]
   + 0.00487264507533514 x[3,3] + 0.0603279866470064 x[3,4]
   + 0.0531125798073397 x[3,5] + 0.061428261341437 x[3,6]
   + 0.0490408149517601 x[3,7] + 0.0563385552719625 x[3,8]
   + 0.06201956542892 x[3,9] + 0.0400664655733779 x[3,10]
   + 0.0431876529718644 x[3,11] + 0.0658592995666265 x[3,12]
   + 0.0714430065193147 x[3,13] + 0.0699684887315405 x[3,14]
   + 0.0714430065193147 x[3,15] + 0.0712184606633085 x[3,16]
   + 0.0412191343008765 x[3,17] + 0.069459518124593 x[3,18]
   + 0.0502009685411256 x[3,19] >= 0
Bounds
 z <= 1
 -infinity <= cashProportion[1] <= 1
 -infinity <= cashProportion[2] <= 1
 -infinity <= cashProportion[3] <= 1
Binaries
 x[1,1] x[1,2] x[1,3] x[1,4] x[1,5] x[1,6] x[1,7] x[1,8] x[1,9] x[1,10]
 x[1,11] x[1,12] x[1,13] x[1,14] x[1,15] x[1,16] x[1,17] x[1,18] x[1,19]
 x[2,1] x[2,2] x[2,3] x[2,4] x[2,5] x[2,6] x[2,7] x[2,8] x[2,9] x[2,10]
 x[2,11] x[2,12] x[2,13] x[2,14] x[2,15] x[2,16] x[2,17] x[2,18] x[2,19]
 x[3,1] x[3,2] x[3,3] x[3,4] x[3,5] x[3,6] x[3,7] x[3,8] x[3,9] x[3,10]
 x[3,11] x[3,12] x[3,13] x[3,14] x[3,15] x[3,16] x[3,17] x[3,18] x[3,19]
End
