data/mps_files/pEFS/59_1.mps
NAME foo
ROWS
 N  OBJ
 E  allocateEach[1]
 E  allocateEach[2]
 E  allocateEach[3]
 E  allocateEach[4]
 E  allocateEach[5]
 E  allocateEach[6]
 E  allocateEach[7]
 E  allocateEach[8]
 E  allocateEach[9]
 E  allocateEach[10]
 E  allocateEach[11]
 E  allocateEach[12]
 E  allocateEach[13]
 E  allocateEach[14]
 E  allocateEach[15]
 E  allocateEach[16]
 E  allocateEach[17]
 E  allocateEach[18]
 E  allocateEach[19]
 E  allocateAllCash
 G  findWorstP[1,2]
 G  findWorstP[1,3]
 G  findWorstP[2,1]
 G  findWorstP[2,3]
 G  findWorstP[3,1]
 G  findWorstP[3,2]
COLUMNS
    z         OBJ       1
    z         findWorstP[1,2]  1
    z         findWorstP[1,3]  1
    z         findWorstP[2,1]  1
    z         findWorstP[2,3]  1
    z         findWorstP[3,1]  1
    z         findWorstP[3,2]  1
    cashProportion[1]  allocateAllCash  1
    cashProportion[1]  findWorstP[1,2]  9.4364549126184291e-03
    cashProportion[1]  findWorstP[1,3]  9.4364549126184291e-03
    cashProportion[1]  findWorstP[2,1]  -1.3877709622803856e-02
    cashProportion[1]  findWorstP[3,1]  -7.4848618668742484e-03
    cashProportion[2]  allocateAllCash  1
    cashProportion[2]  findWorstP[1,2]  -9.4364549126184291e-03
    cashProportion[2]  findWorstP[2,1]  1.3877709622803856e-02
    cashProportion[2]  findWorstP[2,3]  1.3877709622803856e-02
    cashProportion[2]  findWorstP[3,2]  -7.4848618668742484e-03
    cashProportion[3]  allocateAllCash  1
    cashProportion[3]  findWorstP[1,3]  -9.4364549126184291e-03
    cashProportion[3]  findWorstP[2,3]  -1.3877709622803856e-02
    cashProportion[3]  findWorstP[3,1]  7.4848618668742484e-03
    cashProportion[3]  findWorstP[3,2]  7.4848618668742484e-03
    MARKER    'MARKER'                 'INTORG'
    x[1,1]    allocateEach[1]  1
    x[1,1]    findWorstP[1,2]  8.8834786547389882e-02
    x[1,1]    findWorstP[1,3]  8.8834786547389882e-02
    x[1,1]    findWorstP[2,1]  -6.5364012323406162e-03
    x[1,1]    findWorstP[3,1]  -3.0358599732041951e-02
    x[1,2]    allocateEach[2]  1
    x[1,2]    findWorstP[1,2]  9.1769524025214211e-02
    x[1,2]    findWorstP[1,3]  9.1769524025214211e-02
    x[1,2]    findWorstP[2,1]  -4.0245357906131185e-03
    x[1,2]    findWorstP[3,1]  -2.0950128365381019e-02
    x[1,3]    allocateEach[3]  1
    x[1,3]    findWorstP[1,2]  2.3770429924885820e-02
    x[1,3]    findWorstP[1,3]  2.3770429924885820e-02
    x[1,3]    findWorstP[2,1]  -1.1206250520414113e-01
    x[1,3]    findWorstP[3,1]  -4.8726450753351358e-03
    x[1,4]    allocateEach[4]  1
    x[1,4]    findWorstP[1,2]  6.1827652587475940e-02
    x[1,4]    findWorstP[1,3]  6.1827652587475940e-02
    x[1,4]    findWorstP[2,1]  -1.2971495184434761e-01
    x[1,4]    findWorstP[3,1]  -6.0327986647006449e-02
    x[1,5]    allocateEach[5]  1
    x[1,5]    findWorstP[1,2]  1.6759143924810330e-02
    x[1,5]    findWorstP[1,3]  1.6759143924810330e-02
    x[1,5]    findWorstP[2,1]  -5.0403841350023605e-02
    x[1,5]    findWorstP[3,1]  -5.3112579807339667e-02
    x[1,6]    allocateEach[6]  1
    x[1,6]    findWorstP[1,2]  8.5796248065526742e-02
    x[1,6]    findWorstP[1,3]  8.5796248065526742e-02
    x[1,6]    findWorstP[2,1]  -6.6182797191151582e-02
    x[1,6]    findWorstP[3,1]  -6.1428261341436953e-02
    x[1,7]    allocateEach[7]  1
    x[1,7]    findWorstP[1,2]  6.7838674366813873e-02
    x[1,7]    findWorstP[1,3]  6.7838674366813873e-02
    x[1,7]    findWorstP[2,1]  -0.0867773182713925
    x[1,7]    findWorstP[3,1]  -4.9040814951760076e-02
    x[1,8]    allocateEach[8]  1
    x[1,8]    findWorstP[1,2]  7.5199109198656258e-02
    x[1,8]    findWorstP[1,3]  7.5199109198656258e-02
    x[1,8]    findWorstP[2,1]  -1.9317771794942963e-02
    x[1,8]    findWorstP[3,1]  -5.6338555271962472e-02
    x[1,9]    allocateEach[9]  1
    x[1,9]    findWorstP[1,2]  1.5664515154946591e-03
    x[1,9]    findWorstP[1,3]  1.5664515154946591e-03
    x[1,9]    findWorstP[2,1]  -1.0254239640289768e-01
    x[1,9]    findWorstP[3,1]  -6.2019565428920023e-02
    x[1,10]   allocateEach[10]  1
    x[1,10]   findWorstP[1,2]  7.4312082436870111e-02
    x[1,10]   findWorstP[1,3]  7.4312082436870111e-02
    x[1,10]   findWorstP[2,1]  -1.3891587332426658e-02
    x[1,10]   findWorstP[3,1]  -4.0066465573377855e-02
    x[1,11]   allocateEach[11]  1
    x[1,11]   findWorstP[1,2]  4.6144264522704108e-03
    x[1,11]   findWorstP[1,3]  4.6144264522704108e-03
    x[1,11]   findWorstP[2,1]  -3.1599544811124376e-02
    x[1,11]   findWorstP[3,1]  -4.3187652971864408e-02
    x[1,12]   allocateEach[12]  1
    x[1,12]   findWorstP[1,2]  8.4786547389876565e-02
    x[1,12]   findWorstP[1,3]  8.4786547389876565e-02
    x[1,12]   findWorstP[2,1]  -8.4098920314191368e-03
    x[1,12]   findWorstP[3,1]  -0.0658592995666265
    x[1,13]   allocateEach[13]  1
    x[1,13]   findWorstP[1,2]  1.9816555316498697e-04
    x[1,13]   findWorstP[1,3]  1.9816555316498697e-04
    x[1,13]   findWorstP[2,1]  -2.4341502678397960e-02
    x[1,13]   findWorstP[3,1]  -0.0714430065193147
    x[1,14]   allocateEach[14]  1
    x[1,14]   findWorstP[1,2]  3.2291548710980257e-02
    x[1,14]   findWorstP[1,3]  3.2291548710980257e-02
    x[1,14]   findWorstP[2,1]  -9.0635321546531977e-02
    x[1,14]   findWorstP[3,1]  -6.9968488731540476e-02
    x[1,15]   allocateEach[15]  1
    x[1,15]   findWorstP[1,2]  6.1761597403087606e-02
    x[1,15]   findWorstP[1,3]  6.1761597403087606e-02
    x[1,15]   findWorstP[2,1]  -4.9390768547558916e-02
    x[1,15]   findWorstP[3,1]  -0.0714430065193147
    x[1,16]   allocateEach[16]  1
    x[1,16]   findWorstP[1,2]  2.8564149020495984e-02
    x[1,16]   findWorstP[1,3]  2.8564149020495984e-02
    x[1,16]   findWorstP[2,1]  -1.9054095312109692e-02
    x[1,16]   findWorstP[3,1]  -7.1218460663308475e-02
    x[1,17]   allocateEach[17]  1
    x[1,17]   findWorstP[1,2]  2.4959423243875744e-02
    x[1,17]   findWorstP[1,3]  2.4959423243875744e-02
    x[1,17]   findWorstP[2,1]  -0.0590496544450304
    x[1,17]   findWorstP[3,1]  -4.1219134300876481e-02
    x[1,18]   allocateEach[18]  1
    x[1,18]   findWorstP[1,2]  0.0890518250103801
    x[1,18]   findWorstP[1,3]  0.0890518250103801
    x[1,18]   findWorstP[2,1]  -8.6194454467234741e-02
    x[1,18]   findWorstP[3,1]  -6.9459518124593028e-02
    x[1,19]   allocateEach[19]  1
    x[1,19]   findWorstP[1,2]  0.0766617597101121
    x[1,19]   findWorstP[1,3]  0.0766617597101121
    x[1,19]   findWorstP[2,1]  -2.5992950123511618e-02
    x[1,19]   findWorstP[3,1]  -5.0200968541125580e-02
    x[2,1]    allocateEach[1]  1
    x[2,1]    findWorstP[1,2]  -8.8834786547389882e-02
    x[2,1]    findWorstP[2,1]  6.5364012323406162e-03
    x[2,1]    findWorstP[2,3]  6.5364012323406162e-03
    x[2,1]    findWorstP[3,2]  -3.0358599732041951e-02
    x[2,2]    allocateEach[2]  1
    x[2,2]    findWorstP[1,2]  -9.1769524025214211e-02
    x[2,2]    findWorstP[2,1]  4.0245357906131185e-03
    x[2,2]    findWorstP[2,3]  4.0245357906131185e-03
    x[2,2]    findWorstP[3,2]  -2.0950128365381019e-02
    x[2,3]    allocateEach[3]  1
    x[2,3]    findWorstP[1,2]  -2.3770429924885820e-02
    x[2,3]    findWorstP[2,1]  1.1206250520414113e-01
    x[2,3]    findWorstP[2,3]  1.1206250520414113e-01
    x[2,3]    findWorstP[3,2]  -4.8726450753351358e-03
    x[2,4]    allocateEach[4]  1
    x[2,4]    findWorstP[1,2]  -6.1827652587475940e-02
    x[2,4]    findWorstP[2,1]  1.2971495184434761e-01
    x[2,4]    findWorstP[2,3]  1.2971495184434761e-01
    x[2,4]    findWorstP[3,2]  -6.0327986647006449e-02
    x[2,5]    allocateEach[5]  1
    x[2,5]    findWorstP[1,2]  -1.6759143924810330e-02
    x[2,5]    findWorstP[2,1]  5.0403841350023605e-02
    x[2,5]    findWorstP[2,3]  5.0403841350023605e-02
    x[2,5]    findWorstP[3,2]  -5.3112579807339667e-02
    x[2,6]    allocateEach[6]  1
    x[2,6]    findWorstP[1,2]  -8.5796248065526742e-02
    x[2,6]    findWorstP[2,1]  6.6182797191151582e-02
    x[2,6]    findWorstP[2,3]  6.6182797191151582e-02
    x[2,6]    findWorstP[3,2]  -6.1428261341436953e-02
    x[2,7]    allocateEach[7]  1
    x[2,7]    findWorstP[1,2]  -6.7838674366813873e-02
    x[2,7]    findWorstP[2,1]  0.0867773182713925
    x[2,7]    findWorstP[2,3]  0.0867773182713925
    x[2,7]    findWorstP[3,2]  -4.9040814951760076e-02
    x[2,8]    allocateEach[8]  1
    x[2,8]    findWorstP[1,2]  -7.5199109198656258e-02
    x[2,8]    findWorstP[2,1]  1.9317771794942963e-02
    x[2,8]    findWorstP[2,3]  1.9317771794942963e-02
    x[2,8]    findWorstP[3,2]  -5.6338555271962472e-02
    x[2,9]    allocateEach[9]  1
    x[2,9]    findWorstP[1,2]  -1.5664515154946591e-03
    x[2,9]    findWorstP[2,1]  1.0254239640289768e-01
    x[2,9]    findWorstP[2,3]  1.0254239640289768e-01
    x[2,9]    findWorstP[3,2]  -6.2019565428920023e-02
    x[2,10]   allocateEach[10]  1
    x[2,10]   findWorstP[1,2]  -7.4312082436870111e-02
    x[2,10]   findWorstP[2,1]  1.3891587332426658e-02
    x[2,10]   findWorstP[2,3]  1.3891587332426658e-02
    x[2,10]   findWorstP[3,2]  -4.0066465573377855e-02
    x[2,11]   allocateEach[11]  1
    x[2,11]   findWorstP[1,2]  -4.6144264522704108e-03
    x[2,11]   findWorstP[2,1]  3.1599544811124376e-02
    x[2,11]   findWorstP[2,3]  3.1599544811124376e-02
    x[2,11]   findWorstP[3,2]  -4.3187652971864408e-02
    x[2,12]   allocateEach[12]  1
    x[2,12]   findWorstP[1,2]  -8.4786547389876565e-02
    x[2,12]   findWorstP[2,1]  8.4098920314191368e-03
    x[2,12]   findWorstP[2,3]  8.4098920314191368e-03
    x[2,12]   findWorstP[3,2]  -0.0658592995666265
    x[2,13]   allocateEach[13]  1
    x[2,13]   findWorstP[1,2]  -1.9816555316498697e-04
    x[2,13]   findWorstP[2,1]  2.4341502678397960e-02
    x[2,13]   findWorstP[2,3]  2.4341502678397960e-02
    x[2,13]   findWorstP[3,2]  -0.0714430065193147
    x[2,14]   allocateEach[14]  1
    x[2,14]   findWorstP[1,2]  -3.2291548710980257e-02
    x[2,14]   findWorstP[2,1]  9.0635321546531977e-02
    x[2,14]   findWorstP[2,3]  9.0635321546531977e-02
    x[2,14]   findWorstP[3,2]  -6.9968488731540476e-02
    x[2,15]   allocateEach[15]  1
    x[2,15]   findWorstP[1,2]  -6.1761597403087606e-02
    x[2,15]   findWorstP[2,1]  4.9390768547558916e-02
    x[2,15]   findWorstP[2,3]  4.9390768547558916e-02
    x[2,15]   findWorstP[3,2]  -0.0714430065193147
    x[2,16]   allocateEach[16]  1
    x[2,16]   findWorstP[1,2]  -2.8564149020495984e-02
    x[2,16]   findWorstP[2,1]  1.9054095312109692e-02
    x[2,16]   findWorstP[2,3]  1.9054095312109692e-02
    x[2,16]   findWorstP[3,2]  -7.1218460663308475e-02
    x[2,17]   allocateEach[17]  1
    x[2,17]   findWorstP[1,2]  -2.4959423243875744e-02
    x[2,17]   findWorstP[2,1]  0.0590496544450304
    x[2,17]   findWorstP[2,3]  0.0590496544450304
    x[2,17]   findWorstP[3,2]  -4.1219134300876481e-02
    x[2,18]   allocateEach[18]  1
    x[2,18]   findWorstP[1,2]  -0.0890518250103801
    x[2,18]   findWorstP[2,1]  8.6194454467234741e-02
    x[2,18]   findWorstP[2,3]  8.6194454467234741e-02
    x[2,18]   findWorstP[3,2]  -6.9459518124593028e-02
    x[2,19]   allocateEach[19]  1
    x[2,19]   findWorstP[1,2]  -0.0766617597101121
    x[2,19]   findWorstP[2,1]  2.5992950123511618e-02
    x[2,19]   findWorstP[2,3]  2.5992950123511618e-02
    x[2,19]   findWorstP[3,2]  -5.0200968541125580e-02
    x[3,1]    allocateEach[1]  1
    x[3,1]    findWorstP[1,3]  -8.8834786547389882e-02
    x[3,1]    findWorstP[2,3]  -6.5364012323406162e-03
    x[3,1]    findWorstP[3,1]  3.0358599732041951e-02
    x[3,1]    findWorstP[3,2]  3.0358599732041951e-02
    x[3,2]    allocateEach[2]  1
    x[3,2]    findWorstP[1,3]  -9.1769524025214211e-02
    x[3,2]    findWorstP[2,3]  -4.0245357906131185e-03
    x[3,2]    findWorstP[3,1]  2.0950128365381019e-02
    x[3,2]    findWorstP[3,2]  2.0950128365381019e-02
    x[3,3]    allocateEach[3]  1
    x[3,3]    findWorstP[1,3]  -2.3770429924885820e-02
    x[3,3]    findWorstP[2,3]  -1.1206250520414113e-01
    x[3,3]    findWorstP[3,1]  4.8726450753351358e-03
    x[3,3]    findWorstP[3,2]  4.8726450753351358e-03
    x[3,4]    allocateEach[4]  1
    x[3,4]    findWorstP[1,3]  -6.1827652587475940e-02
    x[3,4]    findWorstP[2,3]  -1.2971495184434761e-01
    x[3,4]    findWorstP[3,1]  6.0327986647006449e-02
    x[3,4]    findWorstP[3,2]  6.0327986647006449e-02
    x[3,5]    allocateEach[5]  1
    x[3,5]    findWorstP[1,3]  -1.6759143924810330e-02
    x[3,5]    findWorstP[2,3]  -5.0403841350023605e-02
    x[3,5]    findWorstP[3,1]  5.3112579807339667e-02
    x[3,5]    findWorstP[3,2]  5.3112579807339667e-02
    x[3,6]    allocateEach[6]  1
    x[3,6]    findWorstP[1,3]  -8.5796248065526742e-02
    x[3,6]    findWorstP[2,3]  -6.6182797191151582e-02
    x[3,6]    findWorstP[3,1]  6.1428261341436953e-02
    x[3,6]    findWorstP[3,2]  6.1428261341436953e-02
    x[3,7]    allocateEach[7]  1
    x[3,7]    findWorstP[1,3]  -6.7838674366813873e-02
    x[3,7]    findWorstP[2,3]  -0.0867773182713925
    x[3,7]    findWorstP[3,1]  4.9040814951760076e-02
    x[3,7]    findWorstP[3,2]  4.9040814951760076e-02
    x[3,8]    allocateEach[8]  1
    x[3,8]    findWorstP[1,3]  -7.5199109198656258e-02
    x[3,8]    findWorstP[2,3]  -1.9317771794942963e-02
    x[3,8]    findWorstP[3,1]  5.6338555271962472e-02
    x[3,8]    findWorstP[3,2]  5.6338555271962472e-02
    x[3,9]    allocateEach[9]  1
    x[3,9]    findWorstP[1,3]  -1.5664515154946591e-03
    x[3,9]    findWorstP[2,3]  -1.0254239640289768e-01
    x[3,9]    findWorstP[3,1]  6.2019565428920023e-02
    x[3,9]    findWorstP[3,2]  6.2019565428920023e-02
    x[3,10]   allocateEach[10]  1
    x[3,10]   findWorstP[1,3]  -7.4312082436870111e-02
    x[3,10]   findWorstP[2,3]  -1.3891587332426658e-02
    x[3,10]   findWorstP[3,1]  4.0066465573377855e-02
    x[3,10]   findWorstP[3,2]  4.0066465573377855e-02
    x[3,11]   allocateEach[11]  1
    x[3,11]   findWorstP[1,3]  -4.6144264522704108e-03
    x[3,11]   findWorstP[2,3]  -3.1599544811124376e-02
    x[3,11]   findWorstP[3,1]  4.3187652971864408e-02
    x[3,11]   findWorstP[3,2]  4.3187652971864408e-02
    x[3,12]   allocateEach[12]  1
    x[3,12]   findWorstP[1,3]  -8.4786547389876565e-02
    x[3,12]   findWorstP[2,3]  -8.4098920314191368e-03
    x[3,12]   findWorstP[3,1]  0.0658592995666265
    x[3,12]   findWorstP[3,2]  0.0658592995666265
    x[3,13]   allocateEach[13]  1
    x[3,13]   findWorstP[1,3]  -1.9816555316498697e-04
    x[3,13]   findWorstP[2,3]  -2.4341502678397960e-02
    x[3,13]   findWorstP[3,1]  0.0714430065193147
    x[3,13]   findWorstP[3,2]  0.0714430065193147
    x[3,14]   allocateEach[14]  1
    x[3,14]   findWorstP[1,3]  -3.2291548710980257e-02
    x[3,14]   findWorstP[2,3]  -9.0635321546531977e-02
    x[3,14]   findWorstP[3,1]  6.9968488731540476e-02
    x[3,14]   findWorstP[3,2]  6.9968488731540476e-02
    x[3,15]   allocateEach[15]  1
    x[3,15]   findWorstP[1,3]  -6.1761597403087606e-02
    x[3,15]   findWorstP[2,3]  -4.9390768547558916e-02
    x[3,15]   findWorstP[3,1]  0.0714430065193147
    x[3,15]   findWorstP[3,2]  0.0714430065193147
    x[3,16]   allocateEach[16]  1
    x[3,16]   findWorstP[1,3]  -2.8564149020495984e-02
    x[3,16]   findWorstP[2,3]  -1.9054095312109692e-02
    x[3,16]   findWorstP[3,1]  7.1218460663308475e-02
    x[3,16]   findWorstP[3,2]  7.1218460663308475e-02
    x[3,17]   allocateEach[17]  1
    x[3,17]   findWorstP[1,3]  -2.4959423243875744e-02
    x[3,17]   findWorstP[2,3]  -0.0590496544450304
    x[3,17]   findWorstP[3,1]  4.1219134300876481e-02
    x[3,17]   findWorstP[3,2]  4.1219134300876481e-02
    x[3,18]   allocateEach[18]  1
    x[3,18]   findWorstP[1,3]  -0.0890518250103801
    x[3,18]   findWorstP[2,3]  -8.6194454467234741e-02
    x[3,18]   findWorstP[3,1]  6.9459518124593028e-02
    x[3,18]   findWorstP[3,2]  6.9459518124593028e-02
    x[3,19]   allocateEach[19]  1
    x[3,19]   findWorstP[1,3]  -0.0766617597101121
    x[3,19]   findWorstP[2,3]  -2.5992950123511618e-02
    x[3,19]   findWorstP[3,1]  5.0200968541125580e-02
    x[3,19]   findWorstP[3,2]  5.0200968541125580e-02
    MARKER    'MARKER'                 'INTEND'
RHS
    RHS1      allocateEach[1]  1
    RHS1      allocateEach[2]  1
    RHS1      allocateEach[3]  1
    RHS1      allocateEach[4]  1
    RHS1      allocateEach[5]  1
    RHS1      allocateEach[6]  1
    RHS1      allocateEach[7]  1
    RHS1      allocateEach[8]  1
    RHS1      allocateEach[9]  1
    RHS1      allocateEach[10]  1
    RHS1      allocateEach[11]  1
    RHS1      allocateEach[12]  1
    RHS1      allocateEach[13]  1
    RHS1      allocateEach[14]  1
    RHS1      allocateEach[15]  1
    RHS1      allocateEach[16]  1
    RHS1      allocateEach[17]  1
    RHS1      allocateEach[18]  1
    RHS1      allocateEach[19]  1
    RHS1      allocateAllCash  1
BOUNDS
 UP BND1      z         1
 MI BND1      cashProportion[1]
 UP BND1      cashProportion[1]  1
 MI BND1      cashProportion[2]
 UP BND1      cashProportion[2]  1
 MI BND1      cashProportion[3]
 UP BND1      cashProportion[3]  1
 BV BND1      x[1,1]  
 BV BND1      x[1,2]  
 BV BND1      x[1,3]  
 BV BND1      x[1,4]  
 BV BND1      x[1,5]  
 BV BND1      x[1,6]  
 BV BND1      x[1,7]  
 BV BND1      x[1,8]  
 BV BND1      x[1,9]  
 BV BND1      x[1,10] 
 BV BND1      x[1,11] 
 BV BND1      x[1,12] 
 BV BND1      x[1,13] 
 BV BND1      x[1,14] 
 BV BND1      x[1,15] 
 BV BND1      x[1,16] 
 BV BND1      x[1,17] 
 BV BND1      x[1,18] 
 BV BND1      x[1,19] 
 BV BND1      x[2,1]  
 BV BND1      x[2,2]  
 BV BND1      x[2,3]  
 BV BND1      x[2,4]  
 BV BND1      x[2,5]  
 BV BND1      x[2,6]  
 BV BND1      x[2,7]  
 BV BND1      x[2,8]  
 BV BND1      x[2,9]  
 BV BND1      x[2,10] 
 BV BND1      x[2,11] 
 BV BND1      x[2,12] 
 BV BND1      x[2,13] 
 BV BND1      x[2,14] 
 BV BND1      x[2,15] 
 BV BND1      x[2,16] 
 BV BND1      x[2,17] 
 BV BND1      x[2,18] 
 BV BND1      x[2,19] 
 BV BND1      x[3,1]  
 BV BND1      x[3,2]  
 BV BND1      x[3,3]  
 BV BND1      x[3,4]  
 BV BND1      x[3,5]  
 BV BND1      x[3,6]  
 BV BND1      x[3,7]  
 BV BND1      x[3,8]  
 BV BND1      x[3,9]  
 BV BND1      x[3,10] 
 BV BND1      x[3,11] 
 BV BND1      x[3,12] 
 BV BND1      x[3,13] 
 BV BND1      x[3,14] 
 BV BND1      x[3,15] 
 BV BND1      x[3,16] 
 BV BND1      x[3,17] 
 BV BND1      x[3,18] 
 BV BND1      x[3,19] 
ENDATA
